p cnf 21 54
4 7 11 16 22 29 37 0
8 12 17 23 30 38 47 0
13 18 24 31 39 48 58 0
-4 -8 0
-7 -12 0
-11 -17 0
-16 -23 0
-22 -30 0
-29 -38 0
-37 -47 0
-4 -13 0
-7 -18 0
-11 -24 0
-16 -31 0
-22 -39 0
-29 -48 0
-37 -58 0
-8 -13 0
-12 -18 0
-17 -24 0
-23 -31 0
-30 -39 0
-38 -48 0
-47 -58 0
-4 -17 0
-7 -30 0
-7 -47 0
-11 -30 0
-22 -38 0
-4 -24 0
-7 -39 0
-7 -58 0
-11 -39 0
-22 -48 0
-8 -11 0
-12 -22 0
-12 -37 0
-17 -22 0
-30 -29 0
-8 -24 0
-12 -39 0
-12 -58 0
-17 -39 0
-30 -48 0
-13 -11 0
-18 -22 0
-18 -37 0
-24 -22 0
-39 -29 0
-13 -17 0
-18 -30 0
-18 -47 0
-24 -30 0
-39 -38 0
